c description: Perfect Matching Principle on 
c generator: CNFgen (0.9.0)
c copyright: (C) 2012-2020 Massimo Lauria <massimo.lauria@uniroma1.it>
c url: https://massimolauria.net/cnfgen
c
p cnf 60 242
-1 -2 0
-1 -3 0
-1 -4 0
-2 -3 0
-2 -4 0
-3 -4 0
1 2 3 4 0
-5 -6 0
-5 -7 0
-5 -8 0
-6 -7 0
-6 -8 0
-7 -8 0
5 6 7 8 0
-9 -10 0
-9 -11 0
-9 -12 0
-9 -13 0
-10 -11 0
-10 -12 0
-10 -13 0
-11 -12 0
-11 -13 0
-12 -13 0
9 10 11 12 13 0
-14 -15 0
-14 -16 0
-15 -16 0
14 15 16 0
-17 -18 0
-17 -19 0
-17 -20 0
-17 -21 0
-17 -22 0
-18 -19 0
-18 -20 0
-18 -21 0
-18 -22 0
-19 -20 0
-19 -21 0
-19 -22 0
-20 -21 0
-20 -22 0
-21 -22 0
17 18 19 20 21 22 0
-23 -24 0
-23 -25 0
-24 -25 0
23 24 25 0
-5 -26 0
-5 -27 0
-5 -28 0
-26 -27 0
-26 -28 0
-27 -28 0
5 26 27 28 0
-29 -30 0
29 30 0
-6 -9 0
-6 -17 0
-6 -23 0
-6 -31 0
-6 -32 0
-9 -17 0
-9 -23 0
-9 -31 0
-9 -32 0
-17 -23 0
-17 -31 0
-17 -32 0
-23 -31 0
-23 -32 0
-31 -32 0
6 9 17 23 31 32 0
-18 -33 0
-18 -34 0
-18 -35 0
-33 -34 0
-33 -35 0
-34 -35 0
18 33 34 35 0
-10 -33 0
-10 -36 0
-10 -37 0
-10 -38 0
-33 -36 0
-33 -37 0
-33 -38 0
-36 -37 0
-36 -38 0
-37 -38 0
10 33 36 37 38 0
-29 -39 0
-29 -40 0
-39 -40 0
29 39 40 0
-14 -41 0
14 41 0
42 0
-1 -19 0
-1 -26 0
-19 -26 0
1 19 26 0
-20 -27 0
-20 -43 0
-27 -43 0
20 27 43 0
-15 -36 0
-15 -44 0
-15 -45 0
-15 -46 0
-36 -44 0
-36 -45 0
-36 -46 0
-44 -45 0
-44 -46 0
-45 -46 0
15 36 44 45 46 0
-2 -7 0
-2 -28 0
-2 -44 0
-2 -47 0
-2 -48 0
-2 -49 0
-7 -28 0
-7 -44 0
-7 -47 0
-7 -48 0
-7 -49 0
-28 -44 0
-28 -47 0
-28 -48 0
-28 -49 0
-44 -47 0
-44 -48 0
-44 -49 0
-47 -48 0
-47 -49 0
-48 -49 0
2 7 28 44 47 48 49 0
-45 -50 0
-45 -51 0
-45 -52 0
-50 -51 0
-50 -52 0
-51 -52 0
45 50 51 52 0
-37 -43 0
-37 -53 0
-37 -54 0
-43 -53 0
-43 -54 0
-53 -54 0
37 43 53 54 0
-42 -55 0
-42 -56 0
-42 -57 0
-55 -56 0
-55 -57 0
-56 -57 0
42 55 56 57 0
-11 -50 0
-11 -53 0
-50 -53 0
11 50 53 0
-16 -34 0
-16 -39 0
-16 -47 0
-16 -58 0
-16 -59 0
-34 -39 0
-34 -47 0
-34 -58 0
-34 -59 0
-39 -47 0
-39 -58 0
-39 -59 0
-47 -58 0
-47 -59 0
-58 -59 0
16 34 39 47 58 59 0
-3 -8 0
-3 -24 0
-3 -31 0
-3 -38 0
-3 -40 0
-3 -51 0
-8 -24 0
-8 -31 0
-8 -38 0
-8 -40 0
-8 -51 0
-24 -31 0
-24 -38 0
-24 -40 0
-24 -51 0
-31 -38 0
-31 -40 0
-31 -51 0
-38 -40 0
-38 -51 0
-40 -51 0
3 8 24 31 38 40 51 0
-4 -21 0
-4 -25 0
-4 -52 0
-4 -60 0
-21 -25 0
-21 -52 0
-21 -60 0
-25 -52 0
-25 -60 0
-52 -60 0
4 21 25 52 60 0
-12 -22 0
-12 -32 0
-12 -41 0
-22 -32 0
-22 -41 0
-32 -41 0
12 22 32 41 0
-46 -55 0
46 55 0
-48 -56 0
-48 -58 0
-56 -58 0
48 56 58 0
-13 -35 0
-13 -57 0
-35 -57 0
13 35 57 0
-30 -49 0
-30 -54 0
-30 -59 0
-30 -60 0
-49 -54 0
-49 -59 0
-49 -60 0
-54 -59 0
-54 -60 0
-59 -60 0
30 49 54 59 60 0